%chk=H20_MC
#p CASSCF(6,4)/3-21G Opt Freq

H20 MCSCF/3-21G

0 1
O
H 1 ROH
H 1 ROH 2 AHOH

ROH=0.95
AHOH=105.0
